94 69 47 102 178 74 192 116 8 15 101 156 50 30 96 103 72 111 82 169 22 133 141 117 129 123 35 68 173 166 97 37 108 187 91 48 95 33 132 161 172 113 146 136 7 90 165 138 114 29 112 65 126 70 89 196 162 10 1 86 180 176 151 199 170 189 41 179 66 153 167 127 152 134 88 85 118 100 26 67 122 9 115 6 71 186 185 195 12 119 57 181 155 194 160 190 184 81 182 21 24 5 110 164 147 159 104 36 137 32 54 59 198 106 163 183 61 49 31 191 53 79 76 99 62 34 45 158 52 73 17 39 168 121 27 131 55 87 46 193 19 197 77 139 174 84 144 20 40 0 105 148 188 25 143 175 140 43 2 16 23 58 124 93 75 98 56 128 149 142 13 64 135 51 38 125 42 92 150 83 177 107 145 14 78 130 120 28 157 171 3 18 44 60 4 11 63 154 109 80 

